NAME : instances/20-120-tsp/instance-23.tsp
COMMENT : No Comment
TYPE : TSP
DIMENSION: 23
EDGE_WEIGHT_TYPE : EUC_2D
NODE_COORD_SECTION
1 5795 6511 
2 5821 5642 
3 8548 8635 
4 7660 9752 
5 7870 1194 
6 1798 7413 
7 2555 1801 
8 1499 9718 
9 2701 6989 
10 3544 8721 
11 6345 5443 
12 2520 8997 
13 5297 3199 
14 703 4728 
15 8401 5709 
16 7613 2415 
17 2887 4584 
18 3085 8025 
19 8192 8494 
20 870 6305 
21 2314 7372 
22 9661 7075 
23 2363 6972 
EOF
